minimize
obj: 40 x_1__out + 14 x_2__out + 81 x_3__out + 7 x_4__out + 4 x_5__out + 14 x_6__out + 56 x_7__out + 57 x_8__out + 24 x_9__out + 18 x_10__out + 1000 p_1_ + 1000 p_2_ + 1 x23
subject to
knapsack_1_: 39 x_1__in + 49 x_2__in + 68 x_3__in + 28 x_4__in + 39 x_5__in + 85 x_6__in + 84 x_7__in + 80 x_8__in + 6 x_9__in + 18 x_10__in + 34 x_1__out + 19 x_2__out + 96 x_3__out + 30 x_4__out + 35 x_5__out + 65 x_6__out + 19 x_7__out + 63 x_8__out + 20 x_9__out + 82 x_10__out + 1 p_1_ >= 719.25
knapsack_2_: 96 x_1__in + 22 x_2__in + 91 x_3__in + 69 x_4__in + 56 x_5__in + 95 x_6__in + 76 x_7__in + 62 x_8__in + 96 x_9__in + 24 x_10__in + 44 x_1__out + 32 x_2__out + 6 x_3__out + 29 x_4__out + 29 x_5__out + 2 x_6__out + 36 x_7__out + 59 x_8__out + 66 x_9__out + 65 x_10__out + 1 p_2_ >= 791.25
c3: 121.59754253663922 x_1__out + 43.38634271167938 x_2__out + 112.06978118412468 x_3__out + 15.005059460324233 x_4__out + 36.78497274016262 x_5__out + 17.340183321622163 x_6__out + 124.84095539613031 x_7__out + 81.81488602000101 x_8__out + 50.14693805209798 x_9__out + 70.87407186370709 x_10__out + 1 x23 >= 2825.586197864385
c4: 121.59754253663922 x_1__out + 43.38634271167938 x_2__out + 112.06978118412468 x_3__out + 15.005059460324233 x_4__out + 36.78497274016262 x_5__out + 17.340183321622163 x_6__out + 124.84095539613031 x_7__out + 81.81488602000101 x_8__out + 50.14693805209798 x_9__out + 70.87407186370709 x_10__out + 1 x23 >= 2825.5861978643848
c5: 108.9317625914433 x_1__out + 37.46800748395793 x_2__out + 100.17986948707508 x_3__out + 13.086202768924025 x_4__out + 34.04183223577978 x_5__out + 15.477510917030568 x_6__out + 113.797652662913 x_7__out + 75.98765462868054 x_8__out + 46.62212260773108 x_9__out + 62.0624443617574 x_10__out + 1 x23 >= 2772.394919192912
c6: 85.42030777686179 x_1__out + 19.56660483649355 x_2__out + 77.03833470733719 x_3__out + 7.76518274251168 x_4__out + 34.32928002198406 x_5__out + 11.740622423742789 x_6__out + 102.98674086287443 x_7__out + 78.48911101951086 x_8__out + 48.47406567738389 x_9__out + 38.641316295685634 x_10__out + 1 x23 >= 2686.7493988733163
Bounds
x_1__in = 0
x_2__in = 0
x_3__in = 1
x_4__in = 1
x_5__in = 1
x_6__in = 1
x_7__in = 1
x_8__in = 1
x_9__in = 1
x_10__in = 0
x_1__out >= 0
x_2__out >= 0
x_3__out >= 0
x_4__out >= 0
x_5__out >= 0
x_6__out >= 0
x_7__out >= 0
x_8__out >= 0
x_9__out >= 0
x_10__out >= 0
p_1_ >= 1
p_2_ >= 1
x23 >= 0
Binary
x_1__out
x_2__out
x_3__out
x_4__out
x_5__out
x_6__out
x_7__out
x_8__out
x_9__out
x_10__out
End
